==> MAXTIME              = 3600
==> OUTPUTLOG            = 1
==> HEURSEARCHTREESELECT = 3
FICO Xpress v8.5.9, solve started 23:44:59, Jun 8, 2019
Maximizing MILP Seating model
Original problem has:
       230 rows          300 cols         7440 elements       300 globals
Presolved problem has:
       103 rows          204 cols         2431 elements       198 globals
LP relaxation tightened
Will try to keep branch and bound tree memory usage below 7.2GB
 *** Heuristic solution found:    22.000000      Time: 0 ***
Starting concurrent solve with dual

 Concurrent-Solve,   0s
            Dual        
    objective   dual inf
 D  102.00000   .0000000
------- optimal --------
Concurrent statistics:
      Dual: 34 simplex iterations, 0.00s
Optimal solution found
 
   Its         Obj Value      S   Ninf  Nneg   Sum Dual Inf  Time
    34        102.000000      D      0     0        .000000     0
Dual solved problem
  34 simplex iterations in 0s

Final objective                         : 1.020000000000000e+02
  Max primal violation      (abs / rel) : 1.110e-16 / 9.869e-17
  Max dual violation        (abs / rel) :       0.0 /       0.0
  Max complementarity viol. (abs / rel) :       0.0 /       0.0
All values within tolerances

Starting root cutting & heuristics
 
 Its Type    BestSoln    BestBound   Sols    Add    Del     Gap     GInf   Time
   1  K     22.000000   102.000000      1     99      0   78.43%      29      0
   2  K     22.000000   102.000000      1    111     81   78.43%      43      0
   3  K     22.000000   102.000000      1     92    101   78.43%      48      0
b           28.000000   102.000000      2                 72.55%       0      0
   4  K     28.000000   102.000000      2     87     94   72.55%      35      0
   5  K     28.000000   102.000000      2    100     83   72.55%      49      0
   6  K     28.000000   102.000000      2     93     97   72.55%      47      0
   7  K     28.000000   102.000000      2     89     88   72.55%      58      0
b           35.000000   102.000000      3                 65.69%       0      0
   8  K     35.000000   102.000000      3     81     91   65.69%      37      0
   9  K     35.000000   102.000000      3     95     87   65.69%      48      0
  10  K     35.000000   102.000000      3     97     89   65.69%      58      0
  11  K     35.000000   102.000000      3     83     86   65.69%      67      0
  12  K     35.000000   102.000000      3     93     82   65.69%      72      0
  13  K     35.000000   102.000000      3     87     85   65.69%      76      0
  14  K     35.000000   102.000000      3      2     83   65.69%      39      0
  15  K     35.000000   102.000000      3      1      7   65.69%      39      0
  16  K     35.000000   102.000000      3      1     13   65.69%      39      0
  17  K     35.000000   102.000000      3     96      8   65.69%      58      0
  18  K     35.000000   102.000000      3      2     91   65.69%      39      0
b           47.000000   102.000000      4                 53.92%       0      0
  19  K     47.000000   102.000000      4     93     14   53.92%      52      0
  20  K     47.000000   102.000000      4     99    150   53.92%      59      0
  21  G     47.000000   102.000000      4     39     31   53.92%      41      0
  22  G     47.000000   102.000000      4     70    110   53.92%      55      0
Heuristic search started
Heuristic search stopped
 
Cuts in the matrix         : 39
Cut elements in the matrix : 1106
 
Starting tree search.
Deterministic mode with up to 4 running threads and up to 8 tasks.
 
    Node     BestSoln    BestBound   Sols Active  Depth     Gap     GInf   Time
       1    47.000000   102.000000      4      2      1   53.92%      45      0
       2    47.000000   102.000000      4      2      2   53.92%      57      0
       3    47.000000   102.000000      4      2      3   53.92%      45      0
       4    47.000000   102.000000      4      2      2   53.92%      35      0
       5    47.000000   102.000000      4      2      3   53.92%      48      0
       6    47.000000   102.000000      4      2      4   53.92%      46      0
       7    47.000000   102.000000      4      5      3   53.92%      47      0
       8    47.000000   102.000000      4      5      4   53.92%      48      0
       9    47.000000   102.000000      4      5      4   53.92%      27      0
      10    47.000000   102.000000      4      8      5   53.92%      38      0
      24    47.000000   102.000000      4     17     11   53.92%      53      1
      36    47.000000   102.000000      4     17     16   53.92%      38      1
      48    47.000000   102.000000      4     25     18   53.92%      21      1
      59    47.000000   102.000000      4     25     16   53.92%      34      1
      72    47.000000   102.000000      4     25     13   53.92%      42      1
      92    47.000000   102.000000      4     25     19   53.92%      22      1
     106    47.000000   102.000000      4     42     11   53.92%      56      1
     212    47.000000   102.000000      4     59     16   53.92%      42      1
     314    47.000000   102.000000      4     59     22   53.92%      37      1
B&B tree size: 1.5MB total
 
    Node     BestSoln    BestBound   Sols Active  Depth     Gap     GInf   Time
     415    47.000000   102.000000      4     59     11   53.92%      24      1
     518    47.000000   102.000000      4     86     26   53.92%      11      1
a    604    49.000000   102.000000      5    120     22   51.96%       0      1
a    607    58.000000   102.000000      6    120     24   43.14%       0      1
     627    58.000000   102.000000      6    120     26   43.14%      12      1
     743    58.000000   102.000000      6    121     23   43.14%      15      1
     848    58.000000   102.000000      6    151     23   43.14%      13      1
     952    58.000000   100.991121      6    221     16   42.57%      19      2
    1059    58.000000   100.991121      6    249     19   42.57%      47      2
    1170    58.000000   100.991121      6    279     19   42.57%      14      2
    1278    58.000000   100.991121      6    279     15   42.57%      33      2
    1382    58.000000   100.991121      6    325     14   42.57%      49      2
    1491    58.000000   100.991121      6    325     17   42.57%      21      2
    1600    58.000000   100.991121      6    347     10   42.57%      51      2
    1706    58.000000   100.991121      6    347     22   42.57%      32      2
    1810    58.000000   100.991121      6    347     20   42.57%      36      2
    1911    58.000000   100.991121      6    347     27   42.57%      25      2
    2011    58.000000   100.991121      6    347     15   42.57%      38      2
    2117    58.000000   100.991121      6    347     19   42.57%      21      3
    2223    58.000000   100.991121      6    450     16   42.57%      37      3
B&B tree size: 5.2MB total
 
    Node     BestSoln    BestBound   Sols Active  Depth     Gap     GInf   Time
    2347    58.000000   100.991121      6    450     21   42.57%      31      3
    2448    58.000000   100.991121      6    450     17   42.57%      43      3
a   2474    60.000000   100.991121      7    450     24   40.59%       0      3
    2578    60.000000   100.991121      7    450     27   40.59%      20      3
    2696    60.000000   100.991121      7    466     23   40.59%      32      3
    2798    60.000000   100.991121      7    505     17   40.59%      24      3
    2898    60.000000   100.991121      7    505     22   40.59%      30      3
    3010    60.000000   100.991121      7    545     20   40.59%      41      3
    3111    60.000000   100.991121      7    545     16   40.59%      34      3
    3222    60.000000   100.991121      7    545     18   40.59%      23      3
    3323    60.000000   100.991121      7    545     18   40.59%      43      3
    3433    60.000000   100.991121      7    545     14   40.59%      40      3
    3553    60.000000   100.991121      7    545     20   40.59%      26      4
    3663    60.000000   100.991121      7    545     16   40.59%      38      4
    3770    60.000000   100.367489      7    673     16   40.22%      44      4
    3878    60.000000   100.367489      7    677     23   40.22%      30      4
    3998    60.000000   100.367489      7    758     27   40.22%      29      4
    4103    60.000000   100.367489      7    811     18   40.22%      24      4
    4219    60.000000   100.367489      7    840     18   40.22%      24      4
    4322    60.000000   100.367489      7    840     21   40.22%       6      4
B&B tree size: 9.0MB total
 
    Node     BestSoln    BestBound   Sols Active  Depth     Gap     GInf   Time
    4440    60.000000   100.367489      7    864     22   40.22%      32      4
    4542    60.000000    99.567502      7    983     18   39.74%      20      4
    4644    60.000000    99.567502      7   1064     24   39.74%       7      4
    4744    60.000000    99.567502      7   1064     22   39.74%      27      4
    4844    60.000000    99.567502      7   1064     16   39.74%      38      5
    4949    60.000000    99.567502      7   1064     17   39.74%      46      5
    5055    60.000000    99.567502      7   1064     20   39.74%      33      5
    5172    60.000000    99.567502      7   1064     21   39.74%      32      5
    5272    60.000000    99.567502      7   1064     21   39.74%      35      5
    5385    60.000000    99.567502      7   1064     19   39.74%      33      5
    5495    60.000000    99.567502      7   1064     14   39.74%      58      5
    5595    60.000000    99.567502      7   1104     22   39.74%      56      5
    5698    60.000000    99.567502      7   1104     15   39.74%      43      5
    5801    60.000000    99.567502      7   1104     20   39.74%      36      5
    5919    60.000000    99.567502      7   1127     25   39.74%      23      5
    6031    60.000000    99.567502      7   1254     17   39.74%      48      6
    6139    60.000000    99.567502      7   1254     16   39.74%      44      6
    6240    60.000000    99.567502      7   1254     18   39.74%      44      6
    6344    60.000000    99.567502      7   1254     25   39.74%       6      6
    6454    60.000000    99.567502      7   1317     16   39.74%      37      6
B&B tree size: 12MB total
 
    Node     BestSoln    BestBound   Sols Active  Depth     Gap     GInf   Time
    6567    60.000000    99.567502      7   1317     20   39.74%      38      6
    6672    60.000000    99.567502      7   1317     18   39.74%      19      6
    6782    60.000000    99.567502      7   1317     14   39.74%      55      6
    6885    60.000000    99.567502      7   1317     16   39.74%      30      6
    6996    60.000000    92.039025      7   1414     20   34.81%      45      6
    7103    60.000000    92.039025      7   1414     21   34.81%      28      6
    7203    60.000000    92.039025      7   1479     22   34.81%      39      6
    7314    60.000000    92.039025      7   1492     21   34.81%      36      7
    7420    60.000000    92.039025      7   1492     16   34.81%      33      7
    7525    60.000000    91.815655      7   1581     19   34.65%      40      7
    7629    60.000000    91.815655      7   1617     14   34.65%      25      7
    7736    60.000000    91.815655      7   1652     24   34.65%      34      7
    7848    60.000000    91.815655      7   1652     21   34.65%      18      7
    7958    60.000000    91.815655      7   1652     16   34.65%      36      7
    8058    60.000000    91.815655      7   1652     18   34.65%      27      7
    8168    60.000000    91.815655      7   1652     16   34.65%      42      7
    8278    60.000000    91.815655      7   1663     15   34.65%      50      7
    8380    60.000000    91.815655      7   1748     19   34.65%      32      8
    8494    60.000000    91.815655      7   1748     16   34.65%      27      8
    8596    60.000000    91.815655      7   1748     16   34.65%      35      8
B&B tree size: 15MB total
 
    Node     BestSoln    BestBound   Sols Active  Depth     Gap     GInf   Time
    8696    60.000000    91.815655      7   1749      1   34.65%       1      8
    8800    60.000000    91.815655      7   1749     16   34.65%      35      8
    8900    60.000000    91.815655      7   1773     16   34.65%      41      8
    9003    60.000000    91.815655      7   1787     18   34.65%      40      8
    9106    60.000000    91.815655      7   1787     18   34.65%      45      8
    9213    60.000000    91.815655      7   1787     16   34.65%      39      8
    9320    60.000000    91.815655      7   1787     20   34.65%      39      8
    9422    60.000000    91.815655      7   1790     17   34.65%      37      8
    9524    60.000000    91.815655      7   1796     17   34.65%      36      9
    9639    60.000000    91.815655      7   1810     27   34.65%      25      9
    9740    60.000000    85.123346      7   1893     21   29.51%      12      9
    9841    60.000000    85.123346      7   1893     21   29.51%      35      9
    9949    60.000000    85.123346      7   1909     20   29.51%      34      9
   10061    60.000000    85.123346      7   1947     20   29.51%      52      9
   11082    60.000000    85.123346      7   2145     18   29.51%      23     10
   12088    60.000000    82.331911      7   2220     20   27.12%      35     10
   13090    60.000000    81.432878      7   2286     16   26.32%      46     11
   14108    60.000000    80.184973      7   2334     20   25.17%      37     12
   15109    60.000000    79.103869      7   2390     20   24.15%      55     13
   16114    60.000000    78.511823      7   2384     20   23.58%      38     13
B&B tree size: 23MB total
 
    Node     BestSoln    BestBound   Sols Active  Depth     Gap     GInf   Time
   17124    60.000000    78.023061      7   2406     19   23.10%      25     14
   18124    60.000000    77.000000      7   2425     18   22.08%      51     15
   19125    60.000000    77.000000      7   2374     18   22.08%      42     15
   20135    60.000000    77.000000      7   2382     23   22.08%      17     16
   21135    60.000000    77.000000      7   2386     22   22.08%      24     17
   22135    60.000000    74.998484      7   2360     16   20.00%      35     17
   23136    60.000000    74.324802      7   2350     19   19.27%      33     18
   24137    60.000000    74.000000      7   2328     25   18.92%      20     18
   25150    60.000000    73.457829      7   2290     18   18.32%      25     19
   26153    60.000000    73.000000      7   2229     22   17.81%      33     20
   27154    60.000000    73.000000      7   2175     17   17.81%      33     20
   28166    60.000000    72.004876      7   2079     22   16.67%      26     21
   29169    60.000000    71.141376      7   1981     22   15.66%      23     21
   30180    60.000000    70.309674      7   1842     25   14.66%      22     22
   31186    60.000000    70.000000      7   1732     23   14.29%      43     22
   32186    60.000000    69.010927      7   1556     15   13.06%      46     23
   33202    60.000000    68.002213      7   1359     27   11.77%      18     23
   34206    60.000000    67.000000      7   1067     16   10.45%      25     24
   35208    60.000000    65.552632      7    728     25    8.47%      23     24
   36213    60.000000    63.000000      7    228     19    4.76%      29     25
 *** Search completed ***     Time:    25 Nodes:      36717
Number of integer feasible solutions found is 7
Best integer solution found is    60.000000
Best bound is    60.000000
Uncrunching matrix
